(set-info :smt-lib-version 2.6)
(set-logic AUFBVFPDTNIRA)
(set-info :source |
Generated by: AdaCore
Generated on: 2020-03-06
Generator: SPARK
Application: Program verification for Ada
Target solver: Z3
|)
(set-info :license "https://creativecommons.org/licenses/by/4.0/")
(set-info :category "industrial")
(set-info :status unknown)
;;; generated by SMT-LIB2 driver
;;; SMT-LIB2 driver: bit-vectors, common part
;;; SMT-LIB2: integer arithmetic
(declare-sort string 0)

(declare-datatypes () ((tuple0 (Tuple0))))
(declare-sort us_private 0)

(declare-fun private__bool_eq (us_private us_private) Bool)

(declare-const us_null_ext__ us_private)

(declare-sort us_type_of_heap 0)

(declare-datatypes ()
((us_type_of_heap__ref
 (us_type_of_heap__refqtmk (us_type_of_heap__content us_type_of_heap)))))
(declare-sort us_image 0)

(declare-datatypes () ((int__ref (int__refqtmk (int__content Int)))))
(declare-datatypes () ((bool__ref (bool__refqtmk (bool__content Bool)))))
(declare-datatypes ()
((us_fixed__ref (us_fixed__refqtmk (us_fixed__content Int)))))
(declare-datatypes () ((real__ref (real__refqtmk (real__content Real)))))
(declare-datatypes ()
((us_private__ref (us_private__refqtmk (us_private__content us_private)))))
(define-fun int__ref___projection ((a int__ref)) Int (int__content a))

(define-fun us_fixed__ref___projection ((a us_fixed__ref)) Int (us_fixed__content
                                                               a))

(define-fun bool__ref___projection ((a bool__ref)) Bool (bool__content a))

(define-fun real__ref___projection ((a real__ref)) Real (real__content a))

(define-fun us_private__ref___projection ((a us_private__ref)) us_private 
  (us_private__content a))

(define-fun length ((x Int) (y Int)) Int (ite (<= x y) (+ (- y x) 1) 0))

(declare-sort natural 0)

(declare-fun naturalqtint (natural) Int)

;; natural'axiom
  (assert
  (forall ((i natural))
  (and (<= 0 (naturalqtint i)) (<= (naturalqtint i) 2147483647))))

(define-fun in_range ((x Int)) Bool (and (<= 0 x) (<= x 2147483647)))

(declare-fun attr__ATTRIBUTE_IMAGE (Int) us_image)

(declare-fun attr__ATTRIBUTE_VALUE__pre_check (us_image) Bool)

(declare-fun attr__ATTRIBUTE_VALUE (us_image) Int)

(declare-fun user_eq (natural natural) Bool)

(declare-const dummy natural)

(declare-datatypes ()
((natural__ref (natural__refqtmk (natural__content natural)))))
(define-fun natural__ref_natural__content__projection ((a natural__ref)) natural 
  (natural__content a))

(define-fun dynamic_invariant ((temp___expr_39 Int) (temp___is_init_35 Bool)
  (temp___skip_constant_36 Bool) (temp___do_toplevel_37 Bool)
  (temp___do_typ_inv_38 Bool)) Bool (=>
                                    (or (= temp___is_init_35 true)
                                    (<= 0 2147483647)) (in_range
                                    temp___expr_39)))

(declare-sort integer 0)

(declare-fun integerqtint (integer) Int)

;; integer'axiom
  (assert
  (forall ((i integer))
  (and (<= (- 2147483648) (integerqtint i)) (<= (integerqtint i) 2147483647))))

(define-fun in_range1 ((x Int)) Bool (and (<= (- 2147483648) x)
                                     (<= x 2147483647)))

(declare-fun attr__ATTRIBUTE_IMAGE1 (Int) us_image)

(declare-fun attr__ATTRIBUTE_VALUE__pre_check1 (us_image) Bool)

(declare-fun attr__ATTRIBUTE_VALUE1 (us_image) Int)

(declare-fun user_eq1 (integer integer) Bool)

(declare-const dummy1 integer)

(declare-datatypes ()
((integer__ref (integer__refqtmk (integer__content integer)))))
(define-fun integer__ref_integer__content__projection ((a integer__ref)) integer 
  (integer__content a))

(define-fun dynamic_invariant1 ((temp___expr_18 Int) (temp___is_init_14 Bool)
  (temp___skip_constant_15 Bool) (temp___do_toplevel_16 Bool)
  (temp___do_typ_inv_17 Bool)) Bool (=>
                                    (or (= temp___is_init_14 true)
                                    (<= (- 2147483648) 2147483647))
                                    (in_range1 temp___expr_18)))

(declare-fun id (Int) Int)

(declare-fun id__function_guard (Int Int) Bool)

;; id__post_axiom
  (assert
  (forall ((x Int))
  (! (=> (dynamic_invariant1 x true true true true)
     (let ((result (id x)))
     (=> (id__function_guard result x) (dynamic_invariant1 result true false
     true true)))) :pattern ((id x)) )))

;; id__def_axiom
  (assert
  (forall ((x Int))
  (! (=> (dynamic_invariant1 x true true true true) (= (id x) x)) :pattern (
  (id x)) )))

(declare-const one Int)

(declare-const attr__ATTRIBUTE_ADDRESS Int)

(define-fun to_rep ((x integer)) Int (integerqtint x))

(declare-fun of_rep (Int) integer)

;; inversion_axiom
  (assert
  (forall ((x integer)) (! (= (of_rep (to_rep x)) x) :pattern ((to_rep x)) )))

;; range_axiom
  (assert
  (forall ((x integer)) (! (in_range1 (to_rep x)) :pattern ((to_rep x)) )))

;; coerce_axiom
  (assert
  (forall ((x Int))
  (! (=> (in_range1 x) (= (to_rep (of_rep x)) x)) :pattern ((to_rep
                                                            (of_rep x))) )))

(declare-const first Int)

(define-fun dynamic_property ((first_int Int) (last_int Int)
  (x Int)) Bool (and (<= first_int x) (<= x last_int)))

(declare-fun attr__ATTRIBUTE_IMAGE2 (Int) us_image)

(declare-fun attr__ATTRIBUTE_VALUE__pre_check2 (us_image) Bool)

(declare-fun attr__ATTRIBUTE_VALUE2 (us_image) Int)

(declare-fun user_eq2 (integer integer) Bool)

(declare-const dummy2 integer)

(declare-datatypes ()
((my_positive__ref (my_positive__refqtmk (my_positive__content integer)))))
(define-fun my_positive__ref_my_positive__content__projection ((a my_positive__ref)) integer 
  (my_positive__content a))

(declare-datatypes ()
((map__ref (map__refqtmk (map__content (Array Int integer))))))
(declare-fun slide ((Array Int integer) Int Int) (Array Int integer))

;; slide_eq
  (assert
  (forall ((a (Array Int integer)))
  (forall ((first1 Int))
  (! (= (slide a first1 first1) a) :pattern ((slide a first1 first1)) ))))

;; slide_def
  (assert
  (forall ((a (Array Int integer)))
  (forall ((old_first Int))
  (forall ((new_first Int))
  (forall ((i Int))
  (! (= (select (slide a old_first new_first) i) (select a (- i (- new_first old_first)))) :pattern ((select 
  (slide a old_first new_first) i)) ))))))

(define-fun bool_eq ((a (Array Int integer)) (a__first Int) (a__last Int)
  (b (Array Int integer)) (b__first Int)
  (b__last Int)) Bool (ite (and
                           (ite (<= a__first a__last)
                           (and (<= b__first b__last)
                           (= (- a__last a__first) (- b__last b__first)))
                           (< b__last b__first))
                           (forall ((temp___idx_156 Int))
                           (=>
                           (and (<= a__first temp___idx_156)
                           (<= temp___idx_156 a__last))
                           (= (to_rep (select a temp___idx_156)) (to_rep
                                                                 (select b (+ (- b__first a__first) temp___idx_156)))))))
                      true false))

;; bool_eq_rev
  (assert
  (forall ((a (Array Int integer)) (b (Array Int integer)))
  (forall ((a__first Int) (a__last Int) (b__first Int) (b__last Int))
  (=> (= (bool_eq b b__first b__last a a__first a__last) true)
  (and
  (ite (<= a__first a__last)
  (and (<= b__first b__last) (= (- a__last a__first) (- b__last b__first)))
  (< b__last b__first))
  (forall ((temp___idx_156 Int))
  (=> (and (<= a__first temp___idx_156) (<= temp___idx_156 a__last))
  (= (to_rep (select a temp___idx_156)) (to_rep
                                        (select b (+ (- b__first a__first) temp___idx_156)))))))))))

(declare-const attr__ATTRIBUTE_ADDRESS1 Int)

(declare-sort tTxSP1 0)

(declare-fun tTxSP1qtint (tTxSP1) Int)

;; tTxSP1'axiom
  (assert
  (forall ((i tTxSP1)) (and (<= 1 (tTxSP1qtint i)) (<= (tTxSP1qtint i) 2))))

(define-fun in_range2 ((x Int)) Bool (and (<= 1 x) (<= x 2)))

(declare-fun attr__ATTRIBUTE_IMAGE3 (Int) us_image)

(declare-fun attr__ATTRIBUTE_VALUE__pre_check3 (us_image) Bool)

(declare-fun attr__ATTRIBUTE_VALUE3 (us_image) Int)

(declare-fun user_eq3 (tTxSP1 tTxSP1) Bool)

(declare-const dummy3 tTxSP1)

(declare-datatypes ()
((tTxSP1__ref (tTxSP1__refqtmk (tTxSP1__content tTxSP1)))))
(define-fun tTxSP1__ref_tTxSP1__content__projection ((a tTxSP1__ref)) tTxSP1 
  (tTxSP1__content a))

(define-fun dynamic_invariant2 ((temp___expr_174 (Array Int integer))
  (temp___is_init_170 Bool) (temp___skip_constant_171 Bool)
  (temp___do_toplevel_172 Bool)
  (temp___do_typ_inv_173 Bool)) Bool (forall ((temp___175 Int))
                                     (=>
                                     (and (<= 1 temp___175)
                                     (<= temp___175 2))
                                     (=>
                                     (or (= temp___is_init_170 true)
                                     (<= first 2147483647)) (dynamic_property
                                     first 2147483647
                                     (to_rep
                                     (select temp___expr_174 temp___175)))))))

(define-fun default_initial_assumption ((temp___expr_176 (Array Int integer))
  (temp___skip_top_level_177 Bool)) Bool (forall ((temp___178 Int))
                                         (=>
                                         (and (<= 1 temp___178)
                                         (<= temp___178 2))
                                         (= (to_rep
                                            (select temp___expr_176 temp___178)) 0))))

;; one__def_axiom
  (assert (and (id__function_guard (id 1) 1) (= one (id 1))))

(define-fun dynamic_invariant3 ((temp___expr_161 Int)
  (temp___is_init_157 Bool) (temp___skip_constant_158 Bool)
  (temp___do_toplevel_159 Bool)
  (temp___do_typ_inv_160 Bool)) Bool (=>
                                     (or (= temp___is_init_157 true)
                                     (<= first 2147483647)) (dynamic_property
                                     first 2147483647 temp___expr_161)))

;; first__def_axiom
  (assert (= first one))

(define-fun o () Int (id 1))

;; H
  (assert (id__function_guard o 1))

;; H
  (assert (dynamic_invariant1 o true false true true))

;; H
  (assert (= o 1))

(assert
;; defqtvc
 ;; File "check_component_default_value.ads", line 4, characters 0-0
  (not (in_range o)))
(check-sat)

(exit)
